1307430
0,81,44,82,2,89,23,108,8,76,65,9,63,21,103,57,53,101,104,96,88,90,10,48,30,40,36,25,37,71,74,56,85,26,68,69,13,38,46,70,98,72,61,18,41,59,105,107,77,32,54,67,39,7,27,35,11,64,87,6,49,17,75,86,95,92,12,20,47,79,16,52,99,14,22,78,66,3,91,73,55,102,29,5,60,94,31,42,84,43,19,62,24,15,106,93,80,1,50,83,58,45,28,51,33,100,97,34,4,0